Problem:    
Rows:       256
Columns:    89 (72 integer, 72 binary)
Non-zeros:  960
Status:     INTEGER OPTIMAL
Objective:  value = 11.549256 (MINimum)

   No.   Row name        Activity     Lower bound   Upper bound
------ ------------    ------------- ------------- -------------
     1 r.5                   1011.55             0               
     2 r.6                  -996.965      -997.888               
     3 r.7                   11.5493             0               
     4 r.8                   7.25369      -992.541               
     5 r.9                   1011.55             0               
     6 r.10                 -994.064      -997.364               
     7 r.11                  11.5493             0               
     8 r.12                  9.29107      -992.568               
     9 r.13                  1011.55             0               
    10 r.14                 -990.709      -997.967               
    11 r.15                  11.5493             0               
    12 r.16                  9.29107      -989.451               
    13 r.17                  1011.55             0               
    14 r.18                 -992.742      -998.678               
    15 r.19                  11.5493             0               
    16 r.20                  7.25816      -993.398               
    17 r.21                  11.5493             0               
    18 r.22                  7.23422      -998.817               
    19 r.23                  1011.55             0               
    20 r.24                 -993.315      -994.375               
    21 r.25                  1011.55             0               
    22 r.26                 -999.342      -999.342               
    23 r.27                  11.5493             0               
    24 r.28                 -992.417      -992.417               
    25 r.29                  11.5493             0               
    26 r.30                  11.5493      -998.012               
    27 r.31                  1011.55             0               
    28 r.32                 -988.451       -995.42               
    29 r.33                  1011.55             0               
    30 r.34                 -988.451      -997.742               
    31 r.35                  11.5493             0               
    32 r.36                  11.5493      -994.357               
    33 r.37                        1             1             = 
    34 r.38                        1             1             = 
    35 r.39                        1             1             = 
    36 r.40                        1             1             = 
    37 r.41                        1             1             = 
    38 r.42                        1             1             = 
    39 r.43                        1             1             = 
    40 r.44                        1             1             = 
    41 r.45                        2             2               
    42 r.46                       -2         -1001               
    43 r.47                 -997.364      -997.364               
    44 r.48                     1000             2               
    45 r.49                    -1000         -1001               
    46 r.50                  2002.32      -992.568               
    47 r.51                        2             2               
    48 r.52                       -2         -1001               
    49 r.53                 -994.009      -997.967               
    50 r.54                     1000             2               
    51 r.55                    -1000         -1001               
    52 r.56                  2002.32      -989.451               
    53 r.57                        2             2               
    54 r.58                       -2         -1001               
    55 r.59                 -996.042      -998.678               
    56 r.60                     1000             2               
    57 r.61                    -1000         -1001               
    58 r.62                  2000.29      -993.398               
    59 r.63                     1001             2               
    60 r.64                    -1001         -1001               
    61 r.65                  2003.93      -998.817               
    62 r.66                     1001             2               
    63 r.67                    -1001         -1001               
    64 r.68                  1999.72      -994.375               
    65 r.69                 -997.888      -997.888               
    66 r.70                  6.33032      -992.541               
    67 r.71                 -4.26313      -997.888               
    68 r.72                  999.956      -992.541               
    69 r.73                  8.24925      -998.012               
    70 r.74                 -991.751       -995.42               
    71 r.75                     4.58      -998.012               
    72 r.76                  -995.42       -995.42               
    73 r.77                        2             2               
    74 r.78                       -2         -1001               
    75 r.79                 -991.751      -997.742               
    76 r.80                     1000             2               
    77 r.81                    -1000         -1001               
    78 r.82                  2004.58      -994.357               
    79 r.83                        2             2               
    80 r.84                       -2         -1001               
    81 r.85                  997.099       2.11167               
    82 r.86                     1000             2               
    83 r.87                    -1000         -1001               
    84 r.88                  1997.96        7.4585               
    85 r.89                        2             2               
    86 r.90                       -2         -1001               
    87 r.91                 -996.645      -997.967               
    88 r.92                     1000             2               
    89 r.93                    -1000         -1001               
    90 r.94                     2000      -989.451               
    91 r.95                        2             2               
    92 r.96                       -2         -1001               
    93 r.97                 -998.678      -998.678               
    94 r.98                     1000             2               
    95 r.99                    -1000         -1001               
    96 r.100                 1997.97      -993.398               
    97 r.101                    1001             2               
    98 r.102                   -1001         -1001               
    99 r.103                  1001.3      -998.817               
   100 r.104                    1001             2               
   101 r.105                   -1001         -1001               
   102 r.106                 1997.39      -994.375               
   103 r.107                -994.987      -997.364               
   104 r.108                  8.3677      -992.568               
   105 r.109                -1.36205      -997.364               
   106 r.110                 1001.99      -992.568               
   107 r.111                    1001             2               
   108 r.112                   -1001         -1001               
   109 r.113                 2005.61      -998.012               
   110 r.114                    1001             2               
   111 r.115                   -1001         -1001               
   112 r.116                 2002.26       -995.42               
   113 r.117                -994.387      -997.742               
   114 r.118                 5.61314      -994.357               
   115 r.119                -997.742      -997.742               
   116 r.120                 2.25819      -994.357               
   117 r.121                       2             2               
   118 r.122                      -2         -1001               
   119 r.123                 993.744       2.11167               
   120 r.124                    1000             2               
   121 r.125                   -1000         -1001               
   122 r.126                 1997.96        7.4585               
   123 r.127                       2             2               
   124 r.128                      -2         -1001               
   125 r.129                 996.645       2.63611               
   126 r.130                    1000             2               
   127 r.131                   -1000         -1001               
   128 r.132                    2000       7.43151               
   129 r.133                -997.967      -997.967               
   130 r.134                 2.03291      -989.451               
   131 r.135                -997.967      -997.967               
   132 r.136                 2.03291      -989.451               
   133 r.137                    1001             2               
   134 r.138                   -1001         -1001               
   135 r.139                 1997.94      -998.817               
   136 r.140                    1001             2               
   137 r.141                   -1001         -1001               
   138 r.142                 1997.39      -994.375               
   139 r.143                -991.632      -997.967               
   140 r.144                  8.3677      -989.451               
   141 r.145                  1.9929      -997.967               
   142 r.146                 1001.99      -989.451               
   143 r.147                    1001             2               
   144 r.148                   -1001         -1001               
   145 r.149                 2002.26      -998.012               
   146 r.150                    1001             2               
   147 r.151                   -1001         -1001               
   148 r.152                 2002.26       -995.42               
   149 r.153                -997.742      -997.742               
   150 r.154                 2.25819      -994.357               
   151 r.155                -997.742      -997.742               
   152 r.156                 2.25819      -994.357               
   153 r.157                       2             2               
   154 r.158                      -2         -1001               
   155 r.159                 995.777       2.11167               
   156 r.160                    1000             2               
   157 r.161                   -1000         -1001               
   158 r.162                    2000        7.4585               
   159 r.163                       2             2               
   160 r.164                      -2         -1001               
   161 r.165                 998.678       2.63611               
   162 r.166                    1000             2               
   163 r.167                   -1000         -1001               
   164 r.168                 2002.03       7.43151               
   165 r.169                    1001             2               
   166 r.170                   -1001         -1001               
   167 r.171                 1999.98      -998.817               
   168 r.172                    1001             2               
   169 r.173                   -1001         -1001               
   170 r.174                 1999.43      -994.375               
   171 r.175                -993.665      -998.678               
   172 r.176                 6.33479      -993.398               
   173 r.177                -0.04001      -998.678               
   174 r.178                  999.96      -993.398               
   175 r.179                    1001             2               
   176 r.180                   -1001         -1001               
   177 r.181                 2004.29      -998.012               
   178 r.182                    1001             2               
   179 r.183                   -1001         -1001               
   180 r.184                 2004.29       -995.42               
   181 r.185                -995.709      -997.742               
   182 r.186                  4.2911      -994.357               
   183 r.187                -995.709      -997.742               
   184 r.188                  4.2911      -994.357               
   185 r.189                    1001             2               
   186 r.190                   -1001         -1001               
   187 r.191                 1996.07       2.11167               
   188 r.192                    1001             2               
   189 r.193                   -1001         -1001               
   190 r.194                 2000.28        7.4585               
   191 r.195                    1001             2               
   192 r.196                   -1001         -1001               
   193 r.197                 2998.97       2.63611               
   194 r.198                    1001             2               
   195 r.199                   -1001         -1001               
   196 r.200                 2002.32       7.43151               
   197 r.201                    1001             2               
   198 r.202                   -1001         -1001               
   199 r.203                 2002.32       2.03291               
   200 r.204                    1001             2               
   201 r.205                   -1001         -1001               
   202 r.206                 2002.32       10.5492               
   203 r.207                    1001             2               
   204 r.208                   -1001         -1001               
   205 r.209                 2000.29       1.32204               
   206 r.210                    1001             2               
   207 r.211                   -1001         -1001               
   208 r.212                 2000.29       6.60207               
   209 r.213                 6.31086      -998.817               
   210 r.214                -994.239      -994.375               
   211 r.215                 999.936      -998.817               
   212 r.216               -0.613345      -994.375               
   213 r.217                    4.58      -998.012               
   214 r.218                 -995.42       -995.42               
   215 r.219                    4.58      -998.012               
   216 r.220                 -995.42       -995.42               
   217 r.221                 -995.42      -997.742               
   218 r.222                    4.58      -994.357               
   219 r.223                 -995.42      -997.742               
   220 r.224                    4.58      -994.357               
   221 r.225                    1001             2               
   222 r.226                   -1001         -1001               
   223 r.227                 1994.39       2.63611               
   224 r.228                    1001             2               
   225 r.229                   -1001         -1001               
   226 r.230                 1997.74       7.43151               
   227 r.231                    1001             2               
   228 r.232                   -1001         -1001               
   229 r.233                 1997.74       2.03291               
   230 r.234                    1001             2               
   231 r.235                   -1001         -1001               
   232 r.236                 1997.74       10.5492               
   233 r.237                    1001             2               
   234 r.238                   -1001         -1001               
   235 r.239                 1995.71       1.32204               
   236 r.240                    1001             2               
   237 r.241                   -1001         -1001               
   238 r.242                 1995.71       6.60207               
   239 r.243                    1001             2               
   240 r.244                   -1001         -1001               
   241 r.245                    2000      -997.742               
   242 r.246                    1001             2               
   243 r.247                   -1001         -1001               
   244 r.248                    2000      -994.357               
   245 r.249                       2             2               
   246 r.250                      -2         -1001               
   247 r.251                 991.486       2.11167               
   248 r.252                    1000             2               
   249 r.253                   -1000         -1001               
   250 r.254                  1995.7        7.4585               
   251 r.255                    1001             2               
   252 r.256                   -1001         -1001               
   253 r.257                    2000       1.98771               
   254 r.258                    1001             2               
   255 r.259                   -1001         -1001               
   256 r.260                    2000          4.58               

   No. Column name       Activity     Lower bound   Upper bound
------ ------------    ------------- ------------- -------------
     1 tt                    11.5493             0               
     2 s_1_1        *              1             0             1 
     3 t_1_1                 8.24925             0               
     4 s_1_7        *              0             0             1 
     5 s_2_1        *              0             0             1 
     6 t_2_1                    4.58             0               
     7 s_2_7        *              1             0             1 
     8 s_1_2        *              1             0             1 
     9 t_1_2                 5.61314             0               
    10 s_1_8        *              1             0             1 
    11 s_2_2        *              0             0             1 
    12 t_2_2                 2.25819             0               
    13 s_2_8        *              0             0             1 
    14 s_1_3        *              1             0             1 
    15 t_1_3                 2.25819             0               
    16 s_2_3        *              0             0             1 
    17 t_2_3                 2.25819             0               
    18 s_1_4        *              1             0             1 
    19 t_1_4                  4.2911             0               
    20 s_2_4        *              0             0             1 
    21 t_2_4                  4.2911             0               
    22 s_1_5        *              0             0             1 
    23 t_1_5                    4.58             0               
    24 s_2_5        *              1             0             1 
    25 t_2_5                    4.58             0               
    26 s_1_6        *              1             0             1 
    27 t_1_6                 10.6259             0               
    28 s_2_6        *              0             0             1 
    29 t_2_6                 1004.25             0               
    30 t_1_7                       0             0               
    31 t_2_7                       0             0               
    32 t_1_8                       0             0               
    33 t_2_8                       0             0               
    34 r_1_1_2      *              0             0             1 
    35 u_1_1_2      *              1             0             1 
    36 r_2_1_2      *              1             0             1 
    37 u_2_1_2      *              0             0             1 
    38 r_1_1_3      *              0             0             1 
    39 u_1_1_3      *              1             0             1 
    40 r_2_1_3      *              1             0             1 
    41 u_2_1_3      *              0             0             1 
    42 r_1_1_4      *              0             0             1 
    43 u_1_1_4      *              1             0             1 
    44 r_2_1_4      *              1             0             1 
    45 u_2_1_4      *              0             0             1 
    46 r_1_1_5      *              1             0             1 
    47 u_1_1_5      *              0             0             1 
    48 r_2_1_5      *              1             0             1 
    49 u_2_1_5      *              0             0             1 
    50 r_1_1_8      *              0             0             1 
    51 u_1_1_8      *              1             0             1 
    52 r_2_1_8      *              1             0             1 
    53 u_2_1_8      *              0             0             1 
    54 r_1_2_3      *              0             0             1 
    55 u_1_2_3      *              1             0             1 
    56 r_2_2_3      *              1             0             1 
    57 u_2_2_3      *              0             0             1 
    58 r_1_2_4      *              0             0             1 
    59 u_1_2_4      *              1             0             1 
    60 r_2_2_4      *              1             0             1 
    61 u_2_2_4      *              0             0             1 
    62 r_1_2_5      *              1             0             1 
    63 u_1_2_5      *              1             0             1 
    64 r_2_2_5      *              1             0             1 
    65 u_2_2_5      *              0             0             1 
    66 r_1_2_7      *              1             0             1 
    67 u_1_2_7      *              0             0             1 
    68 r_2_2_7      *              1             0             1 
    69 u_2_2_7      *              0             0             1 
    70 r_1_3_5      *              1             0             1 
    71 u_1_3_5      *              0             0             1 
    72 r_2_3_5      *              1             0             1 
    73 u_2_3_5      *              0             0             1 
    74 r_1_3_7      *              1             0             1 
    75 u_1_3_7      *              0             0             1 
    76 r_2_3_7      *              1             0             1 
    77 u_2_3_7      *              0             0             1 
    78 r_1_4_5      *              1             0             1 
    79 u_1_4_5      *              0             0             1 
    80 r_2_4_5      *              1             0             1 
    81 u_2_4_5      *              0             0             1 
    82 r_1_4_7      *              1             0             1 
    83 u_1_4_7      *              0             0             1 
    84 r_2_4_7      *              1             0             1 
    85 u_2_4_7      *              0             0             1 
    86 r_1_7_8      *              1             0             1 
    87 u_1_7_8      *              0             0             1 
    88 r_2_7_8      *              1             0             1 
    89 u_2_7_8      *              0             0             1 

Integer feasibility conditions:

KKT.PE: max.abs.err = 2.27e-13 on row 22
        max.rel.err = 1.12e-16 on row 22
        High quality

KKT.PB: max.abs.err = 0.00e+00 on row 0
        max.rel.err = 0.00e+00 on row 0
        High quality

End of output
